GLPSOL--GLPK LP/MIP Solver 5.0
Parameter(s) specified in the command line:
 --lp ../modeles/5_439.lp --log 5_439.log
Reading problem data from '../modeles/5_439.lp'...
2216 rows, 4400 columns, 15390 non-zeros
2195 integer variables, all of which are binary
6627 lines were read
GLPK Integer Optimizer 5.0
2216 rows, 4400 columns, 15390 non-zeros
2195 integer variables, all of which are binary
Preprocessing...
2170 constraint coefficient(s) were reduced
2216 rows, 4395 columns, 15385 non-zeros
2195 integer variables, all of which are binary
Scaling...
 A: min|aij| =  2.076e-05  max|aij| =  4.000e+00  ratio =  1.927e+05
GM: min|aij| =  4.773e-02  max|aij| =  2.095e+01  ratio =  4.390e+02
EQ: min|aij| =  2.278e-03  max|aij| =  1.000e+00  ratio =  4.390e+02
2N: min|aij| =  1.953e-03  max|aij| =  1.759e+00  ratio =  9.006e+02
Constructing initial basis...
Size of triangular part is 2216
Solving LP relaxation...
GLPK Simplex Optimizer 5.0
2216 rows, 4395 columns, 15385 non-zeros
      0: obj =   1.000000000e+01 inf =   2.450e+01 (11)
    114: obj =   4.999507057e-01 inf =   0.000e+00 (0)
*   377: obj =  -2.235954860e+00 inf =   2.771e-16 (0)
OPTIMAL LP SOLUTION FOUND
Integer optimization begins...
Long-step dual simplex will be used
+   377: mip =     not found yet >=              -inf        (1; 0)
+  1378: >>>>>  -2.235954860e+00 >=  -2.235954860e+00 < 0.1% (999; 0)
+  1378: mip =  -2.235954860e+00 >=     tree is empty   0.0% (0; 1997)
INTEGER OPTIMAL SOLUTION FOUND
Time used:   3.4 secs
Memory used: 6.5 Mb (6812825 bytes)
